p cnf 200 1110
-101 71 0
-101 -20 0
-101 53 0
-101 -55 0
-101 2 0
-101 -82 0
-101 30 0
-101 96 0
-101 -98 0
-101 73 0
101 -71 20 -53 55 -2 82 -30 -96 98 -73 0
-102 52 0
-102 -19 0
-102 73 0
-102 -9 0
-102 -30 0
-102 70 0
-102 53 0
-102 -51 0
-102 -84 0
-102 -79 0
102 -52 19 -73 9 30 -70 -53 51 84 79 0
-103 12 0
-103 40 0
-103 63 0
-103 94 0
-103 -84 0
-103 -96 0
-103 -65 0
-103 -75 0
-103 -99 0
-103 27 0
103 -12 -40 -63 -94 84 96 65 75 99 -27 0
-104 -82 0
-104 -73 0
-104 84 0
-104 -63 0
-104 59 0
-104 96 0
-104 95 0
-104 56 0
-104 38 0
-104 23 0
104 82 73 -84 63 -59 -96 -95 -56 -38 -23 0
-105 -44 0
-105 58 0
-105 -36 0
-105 70 0
-105 -100 0
-105 -69 0
-105 13 0
-105 -53 0
-105 -22 0
-105 48 0
105 44 -58 36 -70 100 69 -13 53 22 -48 0
-106 -67 0
-106 -38 0
-106 -43 0
-106 33 0
-106 -47 0
-106 27 0
-106 -50 0
-106 99 0
-106 -41 0
-106 65 0
106 67 38 43 -33 47 -27 50 -99 41 -65 0
-107 100 0
-107 40 0
-107 -35 0
-107 -93 0
-107 -80 0
-107 -54 0
-107 -50 0
-107 99 0
-107 20 0
-107 -25 0
107 -100 -40 35 93 80 54 50 -99 -20 25 0
-108 20 0
-108 -5 0
-108 17 0
-108 -27 0
-108 -100 0
-108 43 0
-108 50 0
-108 34 0
-108 61 0
-108 22 0
108 -20 5 -17 27 100 -43 -50 -34 -61 -22 0
-109 30 0
-109 -29 0
-109 -51 0
-109 96 0
-109 -53 0
-109 91 0
-109 99 0
-109 38 0
-109 23 0
-109 6 0
109 -30 29 51 -96 53 -91 -99 -38 -23 -6 0
-110 18 0
-110 41 0
-110 -24 0
-110 37 0
-110 62 0
-110 -64 0
-110 -68 0
-110 53 0
-110 11 0
-110 -19 0
110 -18 -41 24 -37 -62 64 68 -53 -11 19 0
101 102 103 104 105 106 107 108 109 110 0
-111 -52 0
-111 -26 0
-111 -19 0
-111 -63 0
-111 4 0
-111 -9 0
-111 -94 0
-111 -34 0
-111 92 0
-111 67 0
111 52 26 19 63 -4 9 94 34 -92 -67 0
-112 -64 0
-112 -24 0
-112 89 0
-112 40 0
-112 90 0
-112 60 0
-112 54 0
-112 -76 0
-112 -16 0
-112 50 0
112 64 24 -89 -40 -90 -60 -54 76 16 -50 0
-113 95 0
-113 -4 0
-113 -76 0
-113 -74 0
-113 97 0
-113 -49 0
-113 6 0
-113 23 0
-113 -75 0
-113 50 0
113 -95 4 76 74 -97 49 -6 -23 75 -50 0
-114 -4 0
-114 8 0
-114 -94 0
-114 -13 0
-114 -19 0
-114 81 0
-114 -33 0
-114 -26 0
-114 -20 0
-114 -75 0
114 4 -8 94 13 19 -81 33 26 20 75 0
-115 81 0
-115 -31 0
-115 20 0
-115 -27 0
-115 38 0
-115 -90 0
-115 88 0
-115 -83 0
-115 12 0
-115 58 0
115 -81 31 -20 27 -38 90 -88 83 -12 -58 0
-116 41 0
-116 20 0
-116 74 0
-116 -13 0
-116 -92 0
-116 -56 0
-116 33 0
-116 54 0
-116 -38 0
-116 -57 0
116 -41 -20 -74 13 92 56 -33 -54 38 57 0
-117 -90 0
-117 84 0
-117 -29 0
-117 -12 0
-117 27 0
-117 -9 0
-117 21 0
-117 -50 0
-117 2 0
-117 32 0
117 90 -84 29 12 -27 9 -21 50 -2 -32 0
-118 3 0
-118 -82 0
-118 -73 0
-118 30 0
-118 1 0
-118 -40 0
-118 -6 0
-118 52 0
-118 -20 0
-118 59 0
118 -3 82 73 -30 -1 40 6 -52 20 -59 0
-119 -84 0
-119 59 0
-119 99 0
-119 8 0
-119 -28 0
-119 -70 0
-119 -62 0
-119 -52 0
-119 -13 0
-119 4 0
119 84 -59 -99 -8 28 70 62 52 13 -4 0
-120 68 0
-120 -9 0
-120 20 0
-120 -71 0
-120 3 0
-120 41 0
-120 -39 0
-120 61 0
-120 -12 0
-120 -73 0
120 -68 9 -20 71 -3 -41 39 -61 12 73 0
111 112 113 114 115 116 117 118 119 120 0
-121 -27 0
-121 -51 0
-121 -21 0
-121 12 0
-121 -70 0
-121 -50 0
-121 23 0
-121 -93 0
-121 6 0
-121 46 0
121 27 51 21 -12 70 50 -23 93 -6 -46 0
-122 77 0
-122 -71 0
-122 50 0
-122 -92 0
-122 36 0
-122 89 0
-122 -83 0
-122 -100 0
-122 -44 0
-122 99 0
122 -77 71 -50 92 -36 -89 83 100 44 -99 0
-123 1 0
-123 31 0
-123 -12 0
-123 -20 0
-123 -71 0
-123 -97 0
-123 87 0
-123 -92 0
-123 90 0
-123 39 0
123 -1 -31 12 20 71 97 -87 92 -90 -39 0
-124 -92 0
-124 6 0
-124 18 0
-124 -25 0
-124 95 0
-124 -83 0
-124 -87 0
-124 8 0
-124 65 0
-124 -72 0
124 92 -6 -18 25 -95 83 87 -8 -65 72 0
-125 -85 0
-125 61 0
-125 95 0
-125 -71 0
-125 64 0
-125 -17 0
-125 50 0
-125 35 0
-125 20 0
-125 58 0
125 85 -61 -95 71 -64 17 -50 -35 -20 -58 0
-126 -52 0
-126 -43 0
-126 -29 0
-126 -67 0
-126 -98 0
-126 86 0
-126 24 0
-126 -32 0
-126 92 0
-126 41 0
126 52 43 29 67 98 -86 -24 32 -92 -41 0
-127 -4 0
-127 9 0
-127 -11 0
-127 75 0
-127 -77 0
-127 55 0
-127 -1 0
-127 19 0
-127 96 0
-127 83 0
127 4 -9 11 -75 77 -55 1 -19 -96 -83 0
-128 -71 0
-128 86 0
-128 -8 0
-128 97 0
-128 -18 0
-128 78 0
-128 89 0
-128 57 0
-128 -58 0
-128 -3 0
128 71 -86 8 -97 18 -78 -89 -57 58 3 0
-129 -5 0
-129 -28 0
-129 -26 0
-129 37 0
-129 -46 0
-129 -16 0
-129 85 0
-129 -55 0
-129 -20 0
-129 -91 0
129 5 28 26 -37 46 16 -85 55 20 91 0
-130 53 0
-130 17 0
-130 -57 0
-130 -76 0
-130 -75 0
-130 54 0
-130 11 0
-130 66 0
-130 -49 0
-130 -95 0
130 -53 -17 57 76 75 -54 -11 -66 49 95 0
121 122 123 124 125 126 127 128 129 130 0
-131 -23 0
-131 24 0
-131 -60 0
-131 86 0
-131 71 0
-131 20 0
-131 -3 0
-131 -15 0
-131 96 0
-131 -99 0
131 23 -24 60 -86 -71 -20 3 15 -96 99 0
-132 98 0
-132 -87 0
-132 -73 0
-132 -1 0
-132 80 0
-132 2 0
-132 39 0
-132 -71 0
-132 -35 0
-132 -59 0
132 -98 87 73 1 -80 -2 -39 71 35 59 0
-133 -73 0
-133 -53 0
-133 40 0
-133 -34 0
-133 -65 0
-133 -76 0
-133 -100 0
-133 -14 0
-133 44 0
-133 -96 0
133 73 53 -40 34 65 76 100 14 -44 96 0
-134 -92 0
-134 11 0
-134 61 0
-134 -22 0
-134 69 0
-134 -100 0
-134 6 0
-134 54 0
-134 60 0
-134 -14 0
134 92 -11 -61 22 -69 100 -6 -54 -60 14 0
-135 1 0
-135 -57 0
-135 43 0
-135 -58 0
-135 80 0
-135 76 0
-135 -41 0
-135 98 0
-135 -53 0
-135 -71 0
135 -1 57 -43 58 -80 -76 41 -98 53 71 0
-136 -34 0
-136 -5 0
-136 -54 0
-136 79 0
-136 7 0
-136 -70 0
-136 -77 0
-136 -88 0
-136 -78 0
-136 -32 0
136 34 5 54 -79 -7 70 77 88 78 32 0
-137 -36 0
-137 -34 0
-137 -15 0
-137 96 0
-137 -98 0
-137 -92 0
-137 -4 0
-137 73 0
-137 24 0
-137 -84 0
137 36 34 15 -96 98 92 4 -73 -24 84 0
-138 6 0
-138 18 0
-138 45 0
-138 -11 0
-138 77 0
-138 -87 0
-138 22 0
-138 -63 0
-138 75 0
-138 28 0
138 -6 -18 -45 11 -77 87 -22 63 -75 -28 0
-139 -30 0
-139 -91 0
-139 -97 0
-139 20 0
-139 74 0
-139 69 0
-139 60 0
-139 31 0
-139 45 0
-139 44 0
139 30 91 97 -20 -74 -69 -60 -31 -45 -44 0
-140 -40 0
-140 -24 0
-140 -60 0
-140 13 0
-140 52 0
-140 71 0
-140 63 0
-140 -34 0
-140 80 0
-140 99 0
140 40 24 60 -13 -52 -71 -63 34 -80 -99 0
131 132 133 134 135 136 137 138 139 140 0
-141 -36 0
-141 97 0
-141 61 0
-141 1 0
-141 33 0
-141 77 0
-141 -98 0
-141 88 0
-141 -55 0
-141 18 0
141 36 -97 -61 -1 -33 -77 98 -88 55 -18 0
-142 -95 0
-142 -80 0
-142 64 0
-142 -67 0
-142 -65 0
-142 -92 0
-142 -13 0
-142 45 0
-142 -29 0
-142 -62 0
142 95 80 -64 67 65 92 13 -45 29 62 0
-143 93 0
-143 13 0
-143 92 0
-143 -12 0
-143 47 0
-143 66 0
-143 -99 0
-143 8 0
-143 51 0
-143 78 0
143 -93 -13 -92 12 -47 -66 99 -8 -51 -78 0
-144 44 0
-144 -15 0
-144 84 0
-144 73 0
-144 -30 0
-144 -31 0
-144 -88 0
-144 92 0
-144 85 0
-144 -81 0
144 -44 15 -84 -73 30 31 88 -92 -85 81 0
-145 -14 0
-145 -99 0
-145 55 0
-145 6 0
-145 -75 0
-145 7 0
-145 -56 0
-145 77 0
-145 73 0
-145 16 0
145 14 99 -55 -6 75 -7 56 -77 -73 -16 0
-146 42 0
-146 11 0
-146 -58 0
-146 67 0
-146 -97 0
-146 45 0
-146 -34 0
-146 -77 0
-146 -72 0
-146 38 0
146 -42 -11 58 -67 97 -45 34 77 72 -38 0
-147 92 0
-147 30 0
-147 53 0
-147 98 0
-147 100 0
-147 -38 0
-147 44 0
-147 7 0
-147 11 0
-147 -43 0
147 -92 -30 -53 -98 -100 38 -44 -7 -11 43 0
-148 -72 0
-148 -15 0
-148 -77 0
-148 56 0
-148 85 0
-148 -7 0
-148 -81 0
-148 11 0
-148 -63 0
-148 45 0
148 72 15 77 -56 -85 7 81 -11 63 -45 0
-149 -24 0
-149 -27 0
-149 37 0
-149 83 0
-149 63 0
-149 82 0
-149 91 0
-149 -97 0
-149 -67 0
-149 -16 0
149 24 27 -37 -83 -63 -82 -91 97 67 16 0
-150 -78 0
-150 34 0
-150 -16 0
-150 9 0
-150 -59 0
-150 -51 0
-150 -3 0
-150 -67 0
-150 80 0
-150 -10 0
150 78 -34 16 -9 59 51 3 67 -80 10 0
141 142 143 144 145 146 147 148 149 150 0
-151 85 0
-151 -21 0
-151 86 0
-151 -75 0
-151 -80 0
-151 -31 0
-151 68 0
-151 -4 0
-151 -33 0
-151 -8 0
151 -85 21 -86 75 80 31 -68 4 33 8 0
-152 -37 0
-152 -24 0
-152 -17 0
-152 -3 0
-152 -64 0
-152 -21 0
-152 -43 0
-152 94 0
-152 56 0
-152 82 0
152 37 24 17 3 64 21 43 -94 -56 -82 0
-153 -4 0
-153 36 0
-153 19 0
-153 -35 0
-153 46 0
-153 91 0
-153 -89 0
-153 -100 0
-153 -61 0
-153 -85 0
153 4 -36 -19 35 -46 -91 89 100 61 85 0
-154 22 0
-154 32 0
-154 -1 0
-154 66 0
-154 83 0
-154 48 0
-154 -5 0
-154 -91 0
-154 76 0
-154 -49 0
154 -22 -32 1 -66 -83 -48 5 91 -76 49 0
-155 -35 0
-155 65 0
-155 93 0
-155 -9 0
-155 -53 0
-155 -4 0
-155 -48 0
-155 2 0
-155 24 0
-155 -47 0
155 35 -65 -93 9 53 4 48 -2 -24 47 0
-156 27 0
-156 8 0
-156 64 0
-156 22 0
-156 -68 0
-156 83 0
-156 30 0
-156 59 0
-156 99 0
-156 -90 0
156 -27 -8 -64 -22 68 -83 -30 -59 -99 90 0
-157 100 0
-157 59 0
-157 18 0
-157 65 0
-157 -76 0
-157 -99 0
-157 -21 0
-157 -15 0
-157 61 0
-157 8 0
157 -100 -59 -18 -65 76 99 21 15 -61 -8 0
-158 -42 0
-158 60 0
-158 -68 0
-158 -61 0
-158 -13 0
-158 64 0
-158 75 0
-158 -28 0
-158 -72 0
-158 -53 0
158 42 -60 68 61 13 -64 -75 28 72 53 0
-159 -57 0
-159 81 0
-159 -44 0
-159 53 0
-159 -63 0
-159 -25 0
-159 -86 0
-159 -61 0
-159 100 0
-159 -71 0
159 57 -81 44 -53 63 25 86 61 -100 71 0
-160 -67 0
-160 -98 0
-160 26 0
-160 -86 0
-160 -39 0
-160 -51 0
-160 -54 0
-160 69 0
-160 29 0
-160 -41 0
160 67 98 -26 86 39 51 54 -69 -29 41 0
151 152 153 154 155 156 157 158 159 160 0
-161 8 0
-161 86 0
-161 -3 0
-161 -59 0
-161 1 0
-161 90 0
-161 -17 0
-161 36 0
-161 -65 0
-161 -57 0
161 -8 -86 3 59 -1 -90 17 -36 65 57 0
-162 23 0
-162 -29 0
-162 2 0
-162 -32 0
-162 -45 0
-162 -97 0
-162 -85 0
-162 -60 0
-162 -62 0
-162 77 0
162 -23 29 -2 32 45 97 85 60 62 -77 0
-163 5 0
-163 85 0
-163 -49 0
-163 51 0
-163 7 0
-163 28 0
-163 81 0
-163 95 0
-163 10 0
-163 -21 0
163 -5 -85 49 -51 -7 -28 -81 -95 -10 21 0
-164 48 0
-164 30 0
-164 -40 0
-164 13 0
-164 51 0
-164 94 0
-164 39 0
-164 24 0
-164 -28 0
-164 63 0
164 -48 -30 40 -13 -51 -94 -39 -24 28 -63 0
-165 -85 0
-165 -79 0
-165 30 0
-165 -72 0
-165 -99 0
-165 -83 0
-165 4 0
-165 -9 0
-165 57 0
-165 -76 0
165 85 79 -30 72 99 83 -4 9 -57 76 0
-166 -90 0
-166 22 0
-166 24 0
-166 19 0
-166 -58 0
-166 79 0
-166 42 0
-166 -84 0
-166 -88 0
-166 -14 0
166 90 -22 -24 -19 58 -79 -42 84 88 14 0
-167 45 0
-167 72 0
-167 2 0
-167 -99 0
-167 8 0
-167 -31 0
-167 56 0
-167 -14 0
-167 3 0
-167 -66 0
167 -45 -72 -2 99 -8 31 -56 14 -3 66 0
-168 -76 0
-168 -27 0
-168 -15 0
-168 46 0
-168 51 0
-168 -81 0
-168 -95 0
-168 -62 0
-168 9 0
-168 -20 0
168 76 27 15 -46 -51 81 95 62 -9 20 0
-169 32 0
-169 -93 0
-169 -80 0
-169 62 0
-169 98 0
-169 21 0
-169 -25 0
-169 20 0
-169 24 0
-169 -65 0
169 -32 93 80 -62 -98 -21 25 -20 -24 65 0
-170 -77 0
-170 30 0
-170 71 0
-170 91 0
-170 85 0
-170 62 0
-170 -6 0
-170 -34 0
-170 -10 0
-170 37 0
170 77 -30 -71 -91 -85 -62 6 34 10 -37 0
161 162 163 164 165 166 167 168 169 170 0
-171 44 0
-171 70 0
-171 47 0
-171 94 0
-171 57 0
-171 -56 0
-171 77 0
-171 -80 0
-171 -53 0
-171 -99 0
171 -44 -70 -47 -94 -57 56 -77 80 53 99 0
-172 28 0
-172 91 0
-172 -56 0
-172 -58 0
-172 60 0
-172 20 0
-172 -62 0
-172 -51 0
-172 -82 0
-172 -26 0
172 -28 -91 56 58 -60 -20 62 51 82 26 0
-173 -18 0
-173 -62 0
-173 -58 0
-173 100 0
-173 -9 0
-173 -91 0
-173 8 0
-173 -6 0
-173 -95 0
-173 -47 0
173 18 62 58 -100 9 91 -8 6 95 47 0
-174 -86 0
-174 27 0
-174 -57 0
-174 50 0
-174 -66 0
-174 20 0
-174 5 0
-174 14 0
-174 70 0
-174 -3 0
174 86 -27 57 -50 66 -20 -5 -14 -70 3 0
-175 12 0
-175 -86 0
-175 -30 0
-175 -69 0
-175 -10 0
-175 20 0
-175 -71 0
-175 -96 0
-175 -36 0
-175 -88 0
175 -12 86 30 69 10 -20 71 96 36 88 0
-176 28 0
-176 -25 0
-176 -49 0
-176 -70 0
-176 -99 0
-176 14 0
-176 42 0
-176 50 0
-176 -4 0
-176 -60 0
176 -28 25 49 70 99 -14 -42 -50 4 60 0
-177 81 0
-177 35 0
-177 -42 0
-177 -94 0
-177 -13 0
-177 -23 0
-177 -91 0
-177 -40 0
-177 95 0
-177 88 0
177 -81 -35 42 94 13 23 91 40 -95 -88 0
-178 39 0
-178 -25 0
-178 22 0
-178 -6 0
-178 -37 0
-178 100 0
-178 48 0
-178 -75 0
-178 -76 0
-178 66 0
178 -39 25 -22 6 37 -100 -48 75 76 -66 0
-179 -50 0
-179 41 0
-179 59 0
-179 90 0
-179 -7 0
-179 46 0
-179 9 0
-179 27 0
-179 -89 0
-179 -94 0
179 50 -41 -59 -90 7 -46 -9 -27 89 94 0
-180 21 0
-180 -57 0
-180 -70 0
-180 79 0
-180 87 0
-180 -99 0
-180 -8 0
-180 64 0
-180 12 0
-180 86 0
180 -21 57 70 -79 -87 99 8 -64 -12 -86 0
171 172 173 174 175 176 177 178 179 180 0
-181 -78 0
-181 88 0
-181 68 0
-181 -61 0
-181 -66 0
-181 16 0
-181 -2 0
-181 -62 0
-181 -76 0
-181 -18 0
181 78 -88 -68 61 66 -16 2 62 76 18 0
-182 -6 0
-182 -7 0
-182 97 0
-182 -26 0
-182 71 0
-182 76 0
-182 48 0
-182 -32 0
-182 -67 0
-182 -95 0
182 6 7 -97 26 -71 -76 -48 32 67 95 0
-183 85 0
-183 -61 0
-183 -18 0
-183 25 0
-183 -69 0
-183 15 0
-183 99 0
-183 -21 0
-183 -56 0
-183 4 0
183 -85 61 18 -25 69 -15 -99 21 56 -4 0
-184 -25 0
-184 -8 0
-184 -17 0
-184 -34 0
-184 -99 0
-184 7 0
-184 10 0
-184 77 0
-184 63 0
-184 11 0
184 25 8 17 34 99 -7 -10 -77 -63 -11 0
-185 88 0
-185 62 0
-185 -38 0
-185 71 0
-185 90 0
-185 -78 0
-185 58 0
-185 72 0
-185 79 0
-185 -28 0
185 -88 -62 38 -71 -90 78 -58 -72 -79 28 0
-186 -42 0
-186 -92 0
-186 38 0
-186 -34 0
-186 37 0
-186 3 0
-186 21 0
-186 -13 0
-186 35 0
-186 89 0
186 42 92 -38 34 -37 -3 -21 13 -35 -89 0
-187 11 0
-187 31 0
-187 -34 0
-187 -41 0
-187 -76 0
-187 -88 0
-187 98 0
-187 95 0
-187 64 0
-187 46 0
187 -11 -31 34 41 76 88 -98 -95 -64 -46 0
-188 1 0
-188 74 0
-188 -43 0
-188 18 0
-188 71 0
-188 -6 0
-188 3 0
-188 29 0
-188 94 0
-188 10 0
188 -1 -74 43 -18 -71 6 -3 -29 -94 -10 0
-189 85 0
-189 68 0
-189 -2 0
-189 -59 0
-189 87 0
-189 23 0
-189 -22 0
-189 -79 0
-189 64 0
-189 19 0
189 -85 -68 2 59 -87 -23 22 79 -64 -19 0
-190 25 0
-190 -46 0
-190 -33 0
-190 -31 0
-190 85 0
-190 -36 0
-190 97 0
-190 -70 0
-190 -67 0
-190 -65 0
190 -25 46 33 31 -85 36 -97 70 67 65 0
181 182 183 184 185 186 187 188 189 190 0
-191 39 0
-191 -83 0
-191 16 0
-191 25 0
-191 60 0
-191 56 0
-191 20 0
-191 -27 0
-191 33 0
-191 1 0
191 -39 83 -16 -25 -60 -56 -20 27 -33 -1 0
-192 -51 0
-192 83 0
-192 11 0
-192 89 0
-192 -67 0
-192 -2 0
-192 26 0
-192 -62 0
-192 70 0
-192 -94 0
192 51 -83 -11 -89 67 2 -26 62 -70 94 0
-193 -36 0
-193 55 0
-193 -26 0
-193 8 0
-193 -77 0
-193 18 0
-193 -16 0
-193 -38 0
-193 97 0
-193 -74 0
193 36 -55 26 -8 77 -18 16 38 -97 74 0
-194 93 0
-194 62 0
-194 -7 0
-194 -21 0
-194 90 0
-194 -60 0
-194 9 0
-194 18 0
-194 13 0
-194 -3 0
194 -93 -62 7 21 -90 60 -9 -18 -13 3 0
-195 -9 0
-195 -84 0
-195 57 0
-195 47 0
-195 -77 0
-195 -85 0
-195 30 0
-195 -8 0
-195 -79 0
-195 20 0
195 9 84 -57 -47 77 85 -30 8 79 -20 0
-196 22 0
-196 62 0
-196 -5 0
-196 27 0
-196 72 0
-196 43 0
-196 6 0
-196 -57 0
-196 -48 0
-196 -15 0
196 -22 -62 5 -27 -72 -43 -6 57 48 15 0
-197 47 0
-197 -32 0
-197 89 0
-197 -54 0
-197 10 0
-197 -80 0
-197 -37 0
-197 -29 0
-197 -70 0
-197 53 0
197 -47 32 -89 54 -10 80 37 29 70 -53 0
-198 -100 0
-198 84 0
-198 -79 0
-198 -48 0
-198 -8 0
-198 -30 0
-198 -66 0
-198 -22 0
-198 -94 0
-198 -92 0
198 100 -84 79 48 8 30 66 22 94 92 0
-199 -47 0
-199 -99 0
-199 71 0
-199 36 0
-199 33 0
-199 20 0
-199 -75 0
-199 19 0
-199 -74 0
-199 1 0
199 47 99 -71 -36 -33 -20 75 -19 74 -1 0
-200 -21 0
-200 -27 0
-200 -60 0
-200 -55 0
-200 -29 0
-200 -10 0
-200 28 0
-200 -62 0
-200 -40 0
-200 -88 0
200 21 27 60 55 29 10 -28 62 40 88 0
191 192 193 194 195 196 197 198 199 200 0
